p cnf 134 455
-3 1 0
-3 -2 0
-1 2 3 0
-6 -4 0
-6 -5 0
4 5 6 0
-6 7 -8 0
6 -7 -8 0
-6 -7 8 0
6 7 8 0
-9 -3 0
-9 8 0
3 -8 9 0
12 -7 0
12 11 0
7 -11 -12 0
10 12 -13 0
-10 -12 -13 0
10 -12 13 0
-10 12 13 0
15 13 0
15 14 0
-13 -14 -15 0
-16 15 0
-16 10 0
-15 -10 16 0
-18 -17 0
-18 17 0
-19 11 0
-19 18 0
-11 -18 19 0
-20 -16 0
-20 19 0
16 -19 20 0
-7 -21 -22 0
7 21 -22 0
-7 21 22 0
7 -21 22 0
-22 23 -24 0
22 -23 -24 0
-22 -23 24 0
22 23 24 0
-25 -1 0
-25 -19 0
1 19 25 0
26 -12 0
26 -19 0
12 19 -26 0
-27 26 0
-27 10 0
-26 -10 27 0
25 -27 -28 0
-25 27 -28 0
25 27 28 0
-25 -27 28 0
-29 -14 0
-29 -17 0
14 17 29 0
-30 28 0
-30 -29 0
-28 29 30 0
-31 24 0
-31 -30 0
-24 30 31 0
33 -31 0
33 32 0
31 -32 -33 0
-20 -33 -34 0
20 33 -34 0
-20 33 34 0
20 -33 34 0
-26 32 -35 0
26 -32 -35 0
-26 -32 35 0
26 32 35 0
-25 35 -36 0
25 -35 -36 0
-25 -35 36 0
25 35 36 0
-37 16 0
-37 -24 0
-16 24 37 0
38 -25 0
38 37 0
25 -37 -38 0
-39 36 0
-39 -38 0
-36 38 39 0
41 -7 0
41 -40 0
7 40 -41 0
43 42 0
43 -7 0
-42 7 -43 0
-44 -32 0
-44 43 0
32 -43 44 0
-45 -41 0
-45 44 0
41 -44 45 0
46 45 0
46 -41 0
-45 41 -46 0
16 22 -47 0
-16 -22 -47 0
16 -22 47 0
-16 22 47 0
-48 29 0
-48 47 0
-29 -47 48 0
-49 46 0
-49 48 0
-46 -48 49 0
-39 -49 -50 0
39 49 -50 0
-39 49 50 0
39 -49 50 0
34 50 -51 0
-34 -50 -51 0
34 -50 51 0
-34 50 51 0
53 52 0
53 10 0
-52 -10 -53 0
-54 -53 0
-54 -26 0
53 26 54 0
-51 -54 -55 0
51 54 -55 0
-51 54 55 0
51 -54 55 0
-56 9 0
-56 55 0
-9 -55 56 0
5 -1 -57 0
-5 1 -57 0
5 1 57 0
-5 -1 57 0
-58 8 0
-58 22 0
-8 -22 58 0
59 -58 0
59 32 0
58 -32 -59 0
-57 59 -60 0
57 -59 -60 0
-57 -59 60 0
57 59 60 0
-7 6 -61 0
7 -6 -61 0
-7 -6 61 0
7 6 61 0
61 -11 -62 0
-61 11 -62 0
61 11 62 0
-61 -11 62 0
-63 -60 0
-63 -62 0
60 62 63 0
-64 44 0
-64 7 0
-44 -7 64 0
-15 64 -65 0
15 -64 -65 0
-15 -64 65 0
15 64 65 0
-12 -28 -66 0
12 28 -66 0
-12 28 66 0
12 -28 66 0
67 -65 0
67 66 0
65 -66 -67 0
-63 67 -68 0
63 -67 -68 0
-63 -67 68 0
63 67 68 0
-42 -23 -69 0
42 23 -69 0
-42 23 69 0
42 -23 69 0
-27 69 -70 0
27 -69 -70 0
-27 -69 70 0
27 69 70 0
-71 -37 0
-71 -64 0
37 64 71 0
72 -70 0
72 71 0
70 -71 -72 0
-21 57 -73 0
21 -57 -73 0
-21 -57 73 0
21 57 73 0
-74 -72 0
-74 73 0
72 -73 74 0
43 14 -75 0
-43 -14 -75 0
43 -14 75 0
-43 14 75 0
-76 -61 0
-76 26 0
61 -26 76 0
77 -52 0
77 -76 0
52 76 -77 0
79 -16 0
79 -78 0
16 78 -79 0
77 79 -80 0
-77 -79 -80 0
77 -79 80 0
-77 79 80 0
-81 -44 0
-81 -69 0
44 69 81 0
-1 -52 -82 0
1 52 -82 0
-1 52 82 0
1 -52 82 0
-81 -82 -83 0
81 82 -83 0
-81 82 83 0
81 -82 83 0
80 -83 -84 0
-80 83 -84 0
80 83 84 0
-80 -83 84 0
-85 75 0
-85 -84 0
-75 84 85 0
-86 -25 0
-86 28 0
25 -28 86 0
-87 -85 0
-87 86 0
85 -86 87 0
88 -74 0
88 -87 0
74 87 -88 0
-89 -69 0
-89 -43 0
69 43 89 0
-90 -53 0
-90 81 0
53 -81 90 0
-27 -82 -91 0
27 82 -91 0
-27 82 91 0
27 -82 91 0
92 10 0
92 -52 0
-10 52 -92 0
-93 -91 0
-93 92 0
91 -92 93 0
94 90 0
94 -93 0
-90 93 -94 0
-89 94 -95 0
89 -94 -95 0
-89 -94 95 0
89 94 95 0
88 -95 -96 0
-88 95 -96 0
88 95 96 0
-88 -95 96 0
-97 68 0
-97 96 0
-68 -96 97 0
16 -41 -98 0
-16 41 -98 0
16 41 98 0
-16 -41 98 0
-99 32 0
-99 32 0
-32 99 0
19 40 -100 0
-19 -40 -100 0
19 -40 100 0
-19 40 100 0
-101 99 0
-101 100 0
-99 -100 101 0
98 -101 -102 0
-98 101 -102 0
98 101 102 0
-98 -101 102 0
-103 -61 0
-103 -64 0
61 64 103 0
-104 99 0
-104 -103 0
-99 103 104 0
-105 -15 0
-105 23 0
15 -23 105 0
105 -2 -106 0
-105 2 -106 0
105 2 106 0
-105 -2 106 0
-107 52 0
-107 -105 0
-52 105 107 0
108 -10 0
108 11 0
10 -11 -108 0
108 40 -109 0
-108 -40 -109 0
108 -40 109 0
-108 40 109 0
-110 -107 0
-110 109 0
107 -109 110 0
106 110 -111 0
-106 -110 -111 0
106 -110 111 0
-106 110 111 0
112 104 0
112 -111 0
-104 111 -112 0
113 -102 0
113 112 0
102 -112 -113 0
114 -97 0
114 -113 0
97 113 -114 0
115 -56 0
115 114 0
56 -114 -115 0
-116 69 0
-116 -100 0
-69 100 116 0
-116 -98 -117 0
116 98 -117 0
-116 98 117 0
116 -98 117 0
118 23 0
118 4 0
-23 -4 -118 0
-117 -118 -119 0
117 118 -119 0
-117 118 119 0
117 -118 119 0
-120 6 0
-120 -18 0
-6 18 120 0
121 57 0
121 -120 0
-57 120 -121 0
122 119 0
122 121 0
-119 -121 -122 0
123 115 0
123 122 0
-115 -122 -123 0
124 -52 0
124 32 0
52 -32 -124 0
-124 -17 -125 0
124 17 -125 0
-124 17 125 0
124 -17 125 0
126 15 0
126 12 0
-15 -12 -126 0
-127 -11 0
-127 126 0
11 -126 127 0
128 19 0
128 31 0
-19 -31 -128 0
-129 14 0
-129 -128 0
-14 128 129 0
40 -3 -130 0
-40 3 -130 0
40 3 130 0
-40 -3 130 0
-131 -129 0
-131 130 0
129 -130 131 0
127 -131 -132 0
-127 131 -132 0
127 131 132 0
-127 -131 132 0
133 -125 0
133 132 0
125 -132 -133 0
123 -133 -134 0
-123 133 -134 0
123 133 134 0
-123 -133 134 0
78 91 -127 48 0
-96 -39 78 -121 -116 0
56 -125 -74 122 -132 -103 0
-104 37 64 -110 -68 39 0
56 -108 -17 -55 0
-93 -15 106 0
-99 -98 -33 9 37 0
-77 23 38 0
128 96 0
-71 -72 0
30 95 0
122 -85 -105 111 -9 0
132 77 -113 13 -122 120 0
117 4 95 -14 -110 75 0
52 -82 17 -72 -124 0
-34 109 37 96 57 0
-65 -12 -40 0
-126 -110 0
8 -36 9 70 82 -72 0
-107 77 132 62 -57 0
-118 58 -130 91 -31 -34 0
-120 -30 84 23 134 0
132 -32 -21 116 54 0
39 15 37 0
123 107 -36 103 0
25 65 0
-47 26 0
-23 -102 105 -6 66 0
36 132 28 43 -6 0
-28 15 -80 -55 0
96 132 -90 9 98 -33 0
25 -88 -81 0
81 -78 -77 80 0
-15 -108 21 58 118 27 0
-3 -19 -61 0
103 -58 0
-26 -61 -50 -28 108 -32 0
-87 -58 77 42 -5 0
-91 -119 -36 77 84 -8 0
92 102 0
6 -8 -15 62 0
-6 90 89 108 91 0
47 122 73 39 0
83 118 50 0
-23 -108 83 117 0
-109 -44 0
-100 86 70 0
-29 -120 46 -68 -79 91 0
113 -30 0
63 31 -70 -77 -96 0
8 -103 133 61 -75 6 0
-96 24 46 38 0
128 38 0
-133 81 0
93 -41 0
-125 92 0
-41 -124 -46 43 -113 0
120 -99 58 0
17 -33 -61 -81 26 0
134 0
